c random formula
p cnf 10 30
6 -7 0
-6 -10 0
10 -9 0
-7 4 0
4 5 0
7 4 0
3 -4 0
-8 6 0
-3 4 0
-9 10 0
3 -4 0
4 7 0
-3 -7 0
-4 -8 0
9 -1 0
10 3 0
-1 7 0
6 -4 0
8 4 0
-1 8 0
8 6 0
3 -2 0
9 10 0
-4 -10 0
-5 -4 0
-4 5 0
-6 7 0
-7 -5 0
-7 2 0
10 1 0
